m = 4; % number of couriers
n = 5; % number of packages

l = [6, 3, 4, 4]; % maximum carriable weight per courier
s = [3, 3, 2, 3, 3]; % weight of each package

D = % distance matrix 
	 [| 4, 4, 4, 2, 4, 1
	 | 4, 3, 1, 4, 2, 1
	 | 4, 1, 4, 4, 1, 4
	 | 2, 4, 4, 2, 1, 1
	 | 4, 2, 1, 1, 2, 3
	 | 3, 1, 4, 4, 3, 3
	 |];